sat
(:added-eqs                   30790
 :arith-eq-adapter            835
 :arith-bound-propagations-lp 2886
 :arith-conflicts             16
 :arith-diseq                 1938
 :arith-fixed-eqs             1809
 :arith-lower                 2955
 :arith-make-feasible         1776
 :arith-max-columns           457
 :arith-max-rows              189
 :arith-offset-eqs            398
 :arith-upper                 3079
 :binary-propagations         150669
 :conflicts                   924
 :decisions                   38537
 :del-clause                  1476
 :elim-unconstrained          2
 :final-checks                1
 :max-memory                  25.09
 :memory                      20.70
 :minimized-lits              1479
 :mk-bool-var                 5597
 :mk-clause                   3523
 :mk-clause-binary            7366
 :num-allocs                  5607907
 :num-checks                  1
 :propagations                197123
 :restarts                    8
 :rlimit-count                5925725
 :time                        0.85
 :total-time                  0.94)
